1 1212
2 1043
6 1032
8 996
24 988
29 986
35 975
41 964
46 924



1 1212
2 1076
3 1064
5 1034
7 1028
9 1015
17 985
26 949
72 932
575 920



1 1181
2 1015
4 1004
10 957
28 953
152 944
455 931
634 922
897 917



1 1260
2 1058
6 1042
9 1025
12 997
19 994
35 979
44 947
201 934
400 916



1 1153
2 1104
3 1080
4 1067
5 1041
7 1012
12 993
25 986
36 971
39 969
54 962
133 957
242 948
318 928
661 887



